
Gurobi 11.0.1 (win64) logging started Sat Mar 23 09:13:55 2024

Set parameter LogFile to value "C:\Projetos\Job_Rotation_Algorithms\Outputs\GurobiLogs\gurobi_log-output-44_hes-c31-CostaMirallesModel-NoExtraConstraint-2.log"
Gurobi Optimizer version 11.0.1 build v11.0.1rc0 (win64 - Windows 10.0 (19045.2))

CPU model: 11th Gen Intel(R) Core(TM) i7-1165G7 @ 2.80GHz, instruction set [SSE2|AVX|AVX2|AVX512]
Thread count: 4 physical cores, 8 logical processors, using up to 1 threads

WLS license 901039 - registered to Bitka Analytics
Optimize a model with 942 rows, 2785 columns and 33893 nonzeros
Model fingerprint: 0x1fc316b4
Variable types: 2 continuous, 2783 integer (2783 binary)
Coefficient statistics:
  Matrix range     [1e+00, 1e+02]
  Objective range  [1e+00, 1e+00]
  Bounds range     [1e+00, 6e+01]
  RHS range        [1e+00, 6e+01]
Presolve removed 332 rows and 1212 columns
Presolve time: 0.17s
Presolved: 610 rows, 1573 columns, 12554 nonzeros
Variable types: 0 continuous, 1573 integer (1572 binary)

Root relaxation: objective 5.500000e+01, 567 iterations, 0.00 seconds (0.01 work units)

    Nodes    |    Current Node    |     Objective Bounds      |     Work
 Expl Unexpl |  Obj  Depth IntInf | Incumbent    BestBd   Gap | It/Node Time

     0     0   55.00000    0   63          -   55.00000      -     -    0s
     0     0   55.00000    0  171          -   55.00000      -     -    0s
     0     0   55.00000    0  157          -   55.00000      -     -    0s
     0     0   55.00000    0   48          -   55.00000      -     -    0s
     0     0   55.00000    0   52          -   55.00000      -     -    0s
     0     0   55.00000    0   49          -   55.00000      -     -    0s
     0     0   55.00000    0   70          -   55.00000      -     -    0s
     0     0   55.00000    0   59          -   55.00000      -     -    0s
     0     0   55.00000    0  170          -   55.00000      -     -    0s
     0     0   55.00000    0   56          -   55.00000      -     -    0s
     0     0   55.00000    0   56          -   55.00000      -     -    0s
     0     2   55.00000    0   53          -   55.00000      -     -    0s
   832   391   53.97619   48  118          -   55.00000      -  69.8    5s
H  902   372                      40.0000000   55.00000  37.5%  41.1    7s
*  951   338              35      42.0000000   55.00000  31.0%  46.0    7s
*  970   311              33      44.0000000   55.00000  25.0%  48.3    8s
  1086   285   54.95712   23  206   44.00000   55.00000  25.0%  68.3   10s
  1513   193   48.00000   28   54   44.00000   55.00000  25.0%   102   15s
  1812   108   54.53646   26   71   44.00000   55.00000  25.0%   128   20s
  1936    90   55.00000   30   97   44.00000   55.00000  25.0%   142   25s
  2104    78   55.00000   24   98   44.00000   55.00000  25.0%   153   30s
  2263   100   54.00000   29   78   44.00000   55.00000  25.0%   158   35s
  2537   125   54.56054   23   86   44.00000   55.00000  25.0%   167   40s
  2752   166   53.91509   34  122   44.00000   55.00000  25.0%   173   45s
  3088   170   55.00000   27  115   44.00000   55.00000  25.0%   179   50s
  3324   166 infeasible   30        44.00000   55.00000  25.0%   183   55s
  3616   170   55.00000   19  105   44.00000   55.00000  25.0%   189   60s
  4111   112 infeasible   38        44.00000   54.00000  22.7%   192   65s

Cutting planes:
  Cover: 30
  Clique: 10
  MIR: 1
  StrongCG: 1
  Flow cover: 9
  GUB cover: 8
  RLT: 3

Explored 4483 nodes (903737 simplex iterations) in 67.04 seconds (67.23 work units)
Thread count was 1 (of 8 available processors)

Solution count 3: 44 42 40 

Optimal solution found (tolerance 1.00e-03)
Best objective 4.400000000000e+01, best bound 4.400000000000e+01, gap 0.0000%
